
Gurobi 10.0.1 (mac64[arm]) logging started Fri Mar 29 15:50:18 2024

Set parameter LogFile to value "/Users/deniserings/Documents/zib/s-bahn-data/scripts/DeniseMA/processed/BGAS_BKW/original/LP_based/BGAS_BKW_subgradient_202403291545act_.log"
Gurobi Optimizer version 10.0.1 build v10.0.1rc0 (mac64[arm])

CPU model: Apple M2
Thread count: 8 physical cores, 8 logical processors, using up to 8 threads

Optimize a model with 2101 rows, 1158 columns and 7604 nonzeros
Model fingerprint: 0x16765464
Variable types: 557 continuous, 601 integer (170 binary)
Coefficient statistics:
  Matrix range     [1e+00, 4e+02]
  Objective range  [1e+00, 4e+02]
  Bounds range     [1e+00, 2e+02]
  RHS range        [1e+00, 5e+02]
Found heuristic solution: objective 169.0000000
Presolve removed 906 rows and 352 columns
Presolve time: 0.01s
Presolved: 1195 rows, 806 columns, 5288 nonzeros
Variable types: 302 continuous, 504 integer (504 binary)
Found heuristic solution: objective 165.0000000

Root relaxation: objective 1.490000e+02, 114 iterations, 0.00 seconds (0.00 work units)

    Nodes    |    Current Node    |     Objective Bounds      |     Work
 Expl Unexpl |  Obj  Depth IntInf | Incumbent    BestBd   Gap | It/Node Time

     0     0  149.00000    0    8  165.00000  149.00000  9.70%     -    0s
H    0     0                     161.0000000  149.00000  7.45%     -    0s
H    0     0                     155.0000000  149.00000  3.87%     -    0s
H    0     0                     151.0000000  149.00000  1.32%     -    0s
     0     0  149.00000    0    1  151.00000  149.00000  1.32%     -    0s
     0     0  149.00000    0    2  151.00000  149.00000  1.32%     -    0s
H    0     0                     149.0000000  149.00000  0.00%     -    0s
     0     0  149.00000    0    2  149.00000  149.00000  0.00%     -    0s

Explored 1 nodes (694 simplex iterations) in 0.04 seconds (0.04 work units)
Thread count was 8 (of 8 available processors)

Solution count 6: 149 151 155 ... 169

Optimal solution found (tolerance 1.00e-04)
Best objective 1.490000000000e+02, best bound 1.490000000000e+02, gap 0.0000%

User-callback calls 526, time in user-callback 0.00 sec

Statistics for modelBGAS_BKW:
  Linear constraint matrix    : 2101 Constrs, 1158 Vars, 7604 NZs
  Variable types              : 557 Continuous,
601 Integer (170 Binary)
  Matrix coefficient range    : [ 1, 388 ]
  Objective coefficient range : [ 1, 386 ]
  Variable bound range        : [ 1, 199 ]
  RHS coefficient range       : [ 1, 549 ]

Gurobi 10.0.1 (mac64[arm]) logging started Fri Mar 29 15:50:18 2024

Set parameter LogFile to value "/Users/deniserings/Documents/zib/s-bahn-data/scripts/DeniseMA/processed/BGAS_BKW/original/LP_based/BGAS_BKW_subgradient_202403291545act_.log"
Gurobi Optimizer version 10.0.1 build v10.0.1rc0 (mac64[arm])

CPU model: Apple M2
Thread count: 8 physical cores, 8 logical processors, using up to 8 threads

Optimize a model with 2165 rows, 1158 columns and 7742 nonzeros
Model fingerprint: 0xdf3a8131
Variable types: 557 continuous, 601 integer (170 binary)
Coefficient statistics:
  Matrix range     [1e+00, 4e+02]
  Objective range  [1e+00, 5e+03]
  Bounds range     [1e+00, 2e+02]
  RHS range        [1e+00, 5e+02]

User MIP start produced solution with objective 8427 (0.00s)
Loaded user MIP start with objective 8427

Presolve removed 1081 rows and 395 columns
Presolve time: 0.01s
Presolved: 1084 rows, 763 columns, 4525 nonzeros
Variable types: 286 continuous, 477 integer (477 binary)

Root relaxation: objective 3.103580e+03, 322 iterations, 0.00 seconds (0.00 work units)

    Nodes    |    Current Node    |     Objective Bounds      |     Work
 Expl Unexpl |  Obj  Depth IntInf | Incumbent    BestBd   Gap | It/Node Time

     0     0 3103.58025    0   24 8427.00000 3103.58025  63.2%     -    0s
H    0     0                    3689.3703704 3103.58025  15.9%     -    0s
H    0     0                    3462.5679012 3103.58025  10.4%     -    0s
     0     0 3103.58025    0   54 3462.56790 3103.58025  10.4%     -    0s
H    0     0                    3412.7777778 3103.58025  9.06%     -    0s
H    0     0                    3380.5679012 3103.58025  8.19%     -    0s
     0     0 3103.58025    0   52 3380.56790 3103.58025  8.19%     -    0s
     0     0 3103.58025    0   19 3380.56790 3103.58025  8.19%     -    0s
     0     0 3103.58025    0   19 3380.56790 3103.58025  8.19%     -    0s
     0     0 3103.58025    0   13 3380.56790 3103.58025  8.19%     -    0s
     0     0 3103.58025    0   24 3380.56790 3103.58025  8.19%     -    0s
H    0     0                    3310.3703704 3103.58025  6.25%     -    0s
     0     0 3103.58025    0   18 3310.37037 3103.58025  6.25%     -    0s
     0     0 3103.58025    0   19 3310.37037 3103.58025  6.25%     -    0s
     0     0 3103.58025    0    7 3310.37037 3103.58025  6.25%     -    0s
     0     0 3103.58025    0   42 3310.37037 3103.58025  6.25%     -    0s
     0     0 3103.58025    0    8 3310.37037 3103.58025  6.25%     -    0s
H    0     0                    3289.3703704 3103.58025  5.65%     -    0s
     0     0 3103.58025    0   11 3289.37037 3103.58025  5.65%     -    0s
H    0     0                    3241.9753086 3103.58025  4.27%     -    0s
     0     0 3103.58025    0    5 3241.97531 3103.58025  4.27%     -    0s
     0     0 3103.58025    0    7 3241.97531 3103.58025  4.27%     -    0s
     0     0 3103.58025    0    8 3241.97531 3103.58025  4.27%     -    0s
     0     0 3103.58025    0    8 3241.97531 3103.58025  4.27%     -    0s
     0     2 3103.58025    0    8 3241.97531 3103.58025  4.27%     -    0s
H  214   224                    3235.9753086 3103.58025  4.09%  24.9    0s
H  244   313                    3230.9753086 3103.58025  3.94%  24.2    0s
H  290   313                    3175.9753086 3103.58025  2.28%  23.8    0s
H  396   402                    3161.9753086 3103.58025  1.85%  21.9    0s
H  607   524                    3146.9753086 3103.58025  1.38%  19.8    0s
H 1084   611                    3132.7777778 3103.58025  0.93%  17.8    0s
H 1626   605                    3123.7777778 3103.58025  0.65%  16.7    0s
H 2144   822                    3118.5802469 3103.58025  0.48%  17.1    1s
* 2170   783              57    3103.5802469 3103.58025  0.00%  17.0    1s

Cutting planes:
  Learned: 4
  Gomory: 8
  Cover: 16
  Implied bound: 2
  Clique: 9
  MIR: 1
  Flow cover: 16
  Network: 2
  RLT: 1

Explored 2232 nodes (41827 simplex iterations) in 1.15 seconds (0.86 work units)
Thread count was 8 (of 8 available processors)

Solution count 10: 3103.58 3118.58 3123.78 ... 3241.98

Optimal solution found (tolerance 1.00e-04)
Best objective 3.103580246914e+03, best bound 3.103580246914e+03, gap 0.0000%

User-callback calls 5505, time in user-callback 0.01 sec

Statistics for modelBGAS_BKW:
  Linear constraint matrix    : 2165 Constrs, 1158 Vars, 7742 NZs
  Variable types              : 557 Continuous,
601 Integer (170 Binary)
  Matrix coefficient range    : [ 1, 388 ]
  Objective coefficient range : [ 1, 5125.68 ]
  Variable bound range        : [ 1, 199 ]
  RHS coefficient range       : [ 1, 549 ]

Gurobi 10.0.1 (mac64[arm]) logging started Fri Mar 29 15:50:19 2024

Set parameter LogFile to value "/Users/deniserings/Documents/zib/s-bahn-data/scripts/DeniseMA/processed/BGAS_BKW/original/LP_based/BGAS_BKW_subgradient_202403291545act_.log"
Gurobi Optimizer version 10.0.1 build v10.0.1rc0 (mac64[arm])

CPU model: Apple M2
Thread count: 8 physical cores, 8 logical processors, using up to 8 threads

Optimize a model with 2238 rows, 1158 columns and 7912 nonzeros
Model fingerprint: 0xe42e2eba
Variable types: 557 continuous, 601 integer (170 binary)
Coefficient statistics:
  Matrix range     [1e+00, 4e+02]
  Objective range  [1e+00, 7e+03]
  Bounds range     [1e+00, 2e+02]
  RHS range        [1e+00, 5e+02]

User MIP start produced solution with objective 5472.42 (0.00s)
Loaded user MIP start with objective 5472.42

Presolve removed 1354 rows and 543 columns
Presolve time: 0.01s
Presolved: 884 rows, 615 columns, 3420 nonzeros
Variable types: 238 continuous, 377 integer (377 binary)

Root relaxation: objective 4.288000e+03, 301 iterations, 0.00 seconds (0.00 work units)

    Nodes    |    Current Node    |     Objective Bounds      |     Work
 Expl Unexpl |  Obj  Depth IntInf | Incumbent    BestBd   Gap | It/Node Time

     0     0 4288.00000    0   15 5472.41975 4288.00000  21.6%     -    0s
H    0     0                    5361.8148148 4288.00000  20.0%     -    0s
     0     0 4288.00000    0   40 5361.81481 4288.00000  20.0%     -    0s
     0     0 4288.00000    0   36 5361.81481 4288.00000  20.0%     -    0s
H    0     0                    4957.0000000 4288.00000  13.5%     -    0s
     0     0 4288.00000    0   14 4957.00000 4288.00000  13.5%     -    0s
     0     0 4288.00000    0   16 4957.00000 4288.00000  13.5%     -    0s
     0     0 4288.00000    0   20 4957.00000 4288.00000  13.5%     -    0s
     0     0 4288.00000    0   50 4957.00000 4288.00000  13.5%     -    0s
     0     0 4288.00000    0   12 4957.00000 4288.00000  13.5%     -    0s
     0     0 4288.00000    0   19 4957.00000 4288.00000  13.5%     -    0s
     0     0 4288.00000    0   18 4957.00000 4288.00000  13.5%     -    0s
     0     0 4288.00000    0   18 4957.00000 4288.00000  13.5%     -    0s
     0     2 4288.00000    0    7 4957.00000 4288.00000  13.5%     -    0s
H   37    40                    4927.3024691 4290.85455  12.9%  19.1    0s
H  122   142                    4914.3024691 4290.85455  12.7%  13.5    0s
H  123   142                    4904.3024691 4290.85455  12.5%  13.5    0s
H  175   204                    4880.3024691 4290.85455  12.1%  12.1    0s
H  175   204                    4858.3024691 4290.85455  11.7%  12.1    0s
H  263   258                    4857.3024691 4290.85455  11.7%  10.7    0s
H  264   258                    4820.6049383 4290.85455  11.0%  10.7    0s
H 1345  1096                    4812.6049383 4324.30247  10.1%  10.0    0s
H 1514  1076                    4793.6049383 4324.30247  9.79%  10.0    0s
H 1625  1061                    4792.6049383 4324.30247  9.77%  10.1    0s
 30096 14832 4328.45888   28   17 4792.60494 4328.45888  9.68%  11.0    5s

Cutting planes:
  Learned: 4
  Gomory: 16
  Cover: 4
  Implied bound: 2
  Clique: 2
  MIR: 15
  Flow cover: 23
  Network: 2
  RLT: 3
  Relax-and-lift: 1

Explored 30098 nodes (332113 simplex iterations) in 5.01 seconds (3.54 work units)
Thread count was 8 (of 8 available processors)

Solution count 10: 4792.6 4793.6 4812.6 ... 4927.3

Solve interrupted
Best objective 4.792604938272e+03, best bound 4.328458882196e+03, gap 9.6846%

User-callback calls 63527, time in user-callback 0.07 sec

Statistics for modelBGAS_BKW:
  Linear constraint matrix    : 2238 Constrs, 1158 Vars, 7912 NZs
  Variable types              : 557 Continuous,
601 Integer (170 Binary)
  Matrix coefficient range    : [ 1, 388 ]
  Objective coefficient range : [ 1, 7494.52 ]
  Variable bound range        : [ 1, 199 ]
  RHS coefficient range       : [ 1, 549 ]

Gurobi 10.0.1 (mac64[arm]) logging started Fri Mar 29 15:50:25 2024

Set parameter LogFile to value "/Users/deniserings/Documents/zib/s-bahn-data/scripts/DeniseMA/processed/BGAS_BKW/original/LP_based/BGAS_BKW_subgradient_202403291545act_.log"
Gurobi Optimizer version 10.0.1 build v10.0.1rc0 (mac64[arm])

CPU model: Apple M2
Thread count: 8 physical cores, 8 logical processors, using up to 8 threads

Optimize a model with 2244 rows, 1158 columns and 7924 nonzeros
Model fingerprint: 0xd26f7406
Variable types: 557 continuous, 601 integer (170 binary)
Coefficient statistics:
  Matrix range     [1e+00, 4e+02]
  Objective range  [1e+00, 7e+03]
  Bounds range     [1e+00, 2e+02]
  RHS range        [1e+00, 5e+02]

User MIP start produced solution with objective 3992 (0.00s)
Loaded user MIP start with objective 3992

Presolve removed 1728 rows and 845 columns
Presolve time: 0.07s
Presolved: 516 rows, 313 columns, 2052 nonzeros
Variable types: 121 continuous, 192 integer (192 binary)

Root relaxation: objective 3.687000e+03, 154 iterations, 0.00 seconds (0.00 work units)

    Nodes    |    Current Node    |     Objective Bounds      |     Work
 Expl Unexpl |  Obj  Depth IntInf | Incumbent    BestBd   Gap | It/Node Time

     0     0 3687.00000    0   11 3992.00000 3687.00000  7.64%     -    0s
     0     0 3687.00000    0   27 3992.00000 3687.00000  7.64%     -    0s
     0     0 3687.00000    0   28 3992.00000 3687.00000  7.64%     -    0s
     0     0 3687.00000    0    6 3992.00000 3687.00000  7.64%     -    0s
     0     0 3687.00000    0    6 3992.00000 3687.00000  7.64%     -    0s
     0     0 3687.00000    0    9 3992.00000 3687.00000  7.64%     -    0s
     0     0 3687.00000    0    8 3992.00000 3687.00000  7.64%     -    0s
     0     0 3687.00000    0    8 3992.00000 3687.00000  7.64%     -    0s
     0     2 3687.00000    0    8 3992.00000 3687.00000  7.64%     -    0s
 48121  2509 3921.79588   39   32 3992.00000 3912.00000  2.00%  11.3    5s

Cutting planes:
  Learned: 10
  Gomory: 2
  Cover: 7
  MIR: 13
  StrongCG: 2
  Flow cover: 21

Explored 71447 nodes (805114 simplex iterations) in 6.50 seconds (4.89 work units)
Thread count was 8 (of 8 available processors)

Solution count 2: 3992 3992 

Optimal solution found (tolerance 1.00e-04)
Best objective 3.992000000000e+03, best bound 3.992000000000e+03, gap 0.0000%

User-callback calls 147392, time in user-callback 0.16 sec

Statistics for modelBGAS_BKW:
  Linear constraint matrix    : 2244 Constrs, 1158 Vars, 7924 NZs
  Variable types              : 557 Continuous,
601 Integer (170 Binary)
  Matrix coefficient range    : [ 1, 388 ]
  Objective coefficient range : [ 1, 6693.91 ]
  Variable bound range        : [ 1, 199 ]
  RHS coefficient range       : [ 1, 549 ]

Gurobi 10.0.1 (mac64[arm]) logging started Fri Mar 29 15:50:31 2024

Set parameter LogFile to value "/Users/deniserings/Documents/zib/s-bahn-data/scripts/DeniseMA/processed/BGAS_BKW/original/LP_based/BGAS_BKW_subgradient_202403291545act_.log"
Gurobi Optimizer version 10.0.1 build v10.0.1rc0 (mac64[arm])

CPU model: Apple M2
Thread count: 8 physical cores, 8 logical processors, using up to 8 threads

Optimize a model with 2244 rows, 1158 columns and 7924 nonzeros
Model fingerprint: 0xa5fe822d
Variable types: 557 continuous, 601 integer (170 binary)
Coefficient statistics:
  Matrix range     [1e+00, 4e+02]
  Objective range  [1e+00, 1e+04]
  Bounds range     [1e+00, 2e+02]
  RHS range        [1e+00, 5e+02]

User MIP start produced solution with objective 10504 (0.00s)
Loaded user MIP start with objective 10504

Presolve removed 1727 rows and 844 columns
Presolve time: 0.16s
Presolved: 517 rows, 314 columns, 2056 nonzeros
Found heuristic solution: objective 7713.0000000
Variable types: 121 continuous, 193 integer (193 binary)

Root relaxation: objective 4.540000e+03, 167 iterations, 0.00 seconds (0.00 work units)

    Nodes    |    Current Node    |     Objective Bounds      |     Work
 Expl Unexpl |  Obj  Depth IntInf | Incumbent    BestBd   Gap | It/Node Time

     0     0 4540.00000    0    9 7713.00000 4540.00000  41.1%     -    0s
H    0     0                    6110.0000000 4540.00000  25.7%     -    0s
H    0     0                    4979.0000000 4540.00000  8.82%     -    0s
     0     0 4540.00000    0   18 4979.00000 4540.00000  8.82%     -    0s
H    0     0                    4956.0000000 4540.00000  8.39%     -    0s
     0     0 4540.00000    0   18 4956.00000 4540.00000  8.39%     -    0s
H    0     0                    4948.0000000 4540.00000  8.25%     -    0s
H    0     0                    4914.0000000 4540.00000  7.61%     -    0s
     0     0 4540.00000    0    7 4914.00000 4540.00000  7.61%     -    0s
     0     0 4540.00000    0    9 4914.00000 4540.00000  7.61%     -    0s
     0     0 4540.00000    0    5 4914.00000 4540.00000  7.61%     -    0s
     0     0 4540.00000    0    8 4914.00000 4540.00000  7.61%     -    0s
     0     0 4540.00000    0    5 4914.00000 4540.00000  7.61%     -    0s
     0     0 4540.00000    0    6 4914.00000 4540.00000  7.61%     -    0s
     0     0 4540.00000    0    6 4914.00000 4540.00000  7.61%     -    0s
     0     0 4540.00000    0    9 4914.00000 4540.00000  7.61%     -    0s
     0     0 4540.00000    0    9 4914.00000 4540.00000  7.61%     -    0s
     0     2 4540.00000    0    9 4914.00000 4540.00000  7.61%     -    0s
 64463  2731 4890.00000   42    6 4914.00000 4787.23867  2.58%  10.1    5s

Cutting planes:
  Gomory: 2
  Cover: 7
  MIR: 4
  Flow cover: 19
  Zero half: 2
  RLT: 2

Explored 85684 nodes (827738 simplex iterations) in 6.23 seconds (4.52 work units)
Thread count was 8 (of 8 available processors)

Solution count 8: 4914 4914 4948 ... 10504

Optimal solution found (tolerance 1.00e-04)
Best objective 4.914000000000e+03, best bound 4.914000000000e+03, gap 0.0000%

User-callback calls 175413, time in user-callback 0.19 sec

Statistics for modelBGAS_BKW:
  Linear constraint matrix    : 2244 Constrs, 1158 Vars, 7924 NZs
  Variable types              : 557 Continuous,
601 Integer (170 Binary)
  Matrix coefficient range    : [ 1, 388 ]
  Objective coefficient range : [ 1, 13205.9 ]
  Variable bound range        : [ 1, 199 ]
  RHS coefficient range       : [ 1, 549 ]
